% Auto-generated by scripts/generate_dzn.py
% problem_type   = regex
% instance       = regex_39
% source_json    = instances_json/1_medium_blowup/regex_39.json
% blowup         = 2.375
% representation = DFA

mode = 0;

var_count = 7;
Q = 19;
S = 3;
q0 = 1;
F = {14, 15, 16, 17, 18, 19};
d_dfa = array2d(1..19, 1..3, [
  1, 2, 1,
  1, 2, 3,
  1, 2, 4,
  5, 6, 5,
  7, 8, 7,
  7, 8, 9,
  10, 11, 10,
  10, 11, 12,
  10, 11, 13,
  14, 15, 14,
  14, 15, 16,
  14, 15, 17,
  18, 19, 18,
  1, 2, 1,
  1, 2, 3,
  1, 2, 4,
  5, 6, 5,
  7, 8, 7,
  7, 8, 9
]);
d_nfa = array2d(1..19, 1..3, [
  {}, {}, {},
  {}, {}, {},
  {}, {}, {},
  {}, {}, {},
  {}, {}, {},
  {}, {}, {},
  {}, {}, {},
  {}, {}, {},
  {}, {}, {},
  {}, {}, {},
  {}, {}, {},
  {}, {}, {},
  {}, {}, {},
  {}, {}, {},
  {}, {}, {},
  {}, {}, {},
  {}, {}, {},
  {}, {}, {},
  {}, {}, {}
]);
